
Gurobi 9.0.1 (linux64) logging started Thu Apr 30 06:21:45 2020

Gurobi Optimizer version 9.0.1 build v9.0.1rc0 (linux64)
Optimize a model with 2138 rows, 2120 columns and 19920 nonzeros
Model fingerprint: 0x8949edd7
Variable types: 0 continuous, 2120 integer (2106 binary)
Coefficient statistics:
  Matrix range     [1e+00, 7e+00]
  Objective range  [3e+00, 1e+02]
  Bounds range     [1e+00, 1e+00]
  RHS range        [1e+00, 1e+00]

User MIP start produced solution with objective 571 (0.01s)
Loaded user MIP start with objective 571

Presolve removed 800 rows and 816 columns
Presolve time: 0.13s
Presolved: 1338 rows, 1304 columns, 14312 nonzeros
Variable types: 0 continuous, 1304 integer (1292 binary)

Root relaxation: objective 3.978612e+02, 1070 iterations, 0.11 seconds

    Nodes    |    Current Node    |     Objective Bounds      |     Work
 Expl Unexpl |  Obj  Depth IntInf | Incumbent    BestBd   Gap | It/Node Time

     0     0  397.86124    0  389  571.00000  397.86124  30.3%     -    0s
     0     0  436.87857    0  398  571.00000  436.87857  23.5%     -    0s
     0     0  439.48142    0  381  571.00000  439.48142  23.0%     -    0s
     0     0  439.51778    0  381  571.00000  439.51778  23.0%     -    0s
     0     0  439.51778    0  380  571.00000  439.51778  23.0%     -    0s
     0     0  461.51709    0  386  571.00000  461.51709  19.2%     -    1s
     0     0  462.35614    0  397  571.00000  462.35614  19.0%     -    1s
     0     0  462.36816    0  388  571.00000  462.36816  19.0%     -    1s
     0     0  480.49412    0  396  571.00000  480.49412  15.9%     -    1s
     0     0  481.39038    0  419  571.00000  481.39038  15.7%     -    1s
     0     0  481.45353    0  426  571.00000  481.45353  15.7%     -    1s
     0     0  481.45926    0  417  571.00000  481.45926  15.7%     -    1s
     0     0  485.98736    0  418  571.00000  485.98736  14.9%     -    2s
     0     0  486.45933    0  419  571.00000  486.45933  14.8%     -    2s
     0     0  486.52954    0  419  571.00000  486.52954  14.8%     -    2s
     0     0  486.53315    0  423  571.00000  486.53315  14.8%     -    2s
     0     0  488.03231    0  420  571.00000  488.03231  14.5%     -    2s
     0     0  488.41069    0  422  571.00000  488.41069  14.5%     -    2s
     0     0  488.43859    0  425  571.00000  488.43859  14.5%     -    2s
     0     0  489.98289    0  440  571.00000  489.98289  14.2%     -    2s
     0     0  490.09160    0  437  571.00000  490.09160  14.2%     -    3s
     0     0  490.10938    0  437  571.00000  490.10938  14.2%     -    3s
     0     0  490.48880    0  440  571.00000  490.48880  14.1%     -    3s
     0     0  490.48880    0  440  571.00000  490.48880  14.1%     -    3s
     0     2  490.50542    0  440  571.00000  490.50542  14.1%     -    3s
     9    11  508.64144    5  323  571.00000  496.25177  13.1%   769    5s
    83    64  528.24262    8  259  571.00000  508.66254  10.9%   392   10s
   227   135  552.20432    4  203  571.00000  512.35624  10.3%   263   15s
   329   156  560.12056    5  313  571.00000  513.68846  10.0%   251   20s
   466   205  533.60684   14  231  571.00000  517.46363  9.38%   224   25s
   591   225  533.36094   13  359  571.00000  524.33695  8.17%   213   30s
   739   247     cutoff   11       571.00000  526.19488  7.85%   199   35s
   948   300  559.56654   20  191  571.00000  529.20940  7.32%   180   40s
  1153   332  552.80813   10  132  571.00000  530.77723  7.04%   168   45s
  1302   355  567.87098   16  198  571.00000  533.88017  6.50%   167   50s
  1519   366  560.34992   18  188  571.00000  536.19745  6.10%   160   55s
  1737   379  542.36927   13  213  571.00000  538.56426  5.68%   154   60s
  1915   382  564.03885   22  296  571.00000  540.09624  5.41%   153   65s
  2025   378     cutoff   13       571.00000  540.26073  5.38%   152   70s
  2325   379  548.73950    9  202  571.00000  542.53518  4.99%   145   75s
  2550   369     cutoff   18       571.00000  546.17066  4.35%   143   80s
  2738   345  555.76631   12  251  571.00000  548.08629  4.01%   143   85s
  3023   313  569.24533   17  274  571.00000  550.81042  3.54%   138   90s
  3319   236     cutoff   17       571.00000  554.45759  2.90%   134   95s
  3523   155  562.22394   14  252  571.00000  559.11545  2.08%   131  100s

Cutting planes:
  Gomory: 2
  Cover: 20
  MIR: 20
  Inf proof: 13
  Zero half: 56
  RLT: 306

Explored 3769 nodes (480485 simplex iterations) in 102.19 seconds
Thread count was 1 (of 40 available processors)

Solution count 1: 571 

Optimal solution found (tolerance 1.00e-04)
Best objective 5.710000000000e+02, best bound 5.710000000000e+02, gap 0.0000%

User-callback calls 17925, time in user-callback 0.02 sec
